100
128
6
4
16
11
1
28
40
4
8
7
31
37
31
24
1
15
5
5
8
18
17
17
8
14
14
13
1
15
21
5
38
14
8
21
47
9
40
16
48
4
27
2
10
10
17
42
5
6
51
37
13
52
47
11
45
10
43
8
8
3
53
5
46
8
39
55
44
2
56
3
46
59
5
45
52
5
48
6
2
47
22
2
54
63
17
26
4
41
39
59
41
6
11
4
31
36
32
1
32
33